p cnf 73 218
-3 -1 0
-3 2 0
1 -2 3 0
4 5 -6 0
-4 -5 -6 0
4 -5 6 0
-4 5 6 0
9 -7 0
9 -8 0
7 8 -9 0
-10 -9 0
-10 -2 0
9 2 10 0
-11 -6 0
-11 -10 0
6 10 11 0
-12 -3 0
-12 -11 0
3 11 12 0
-13 9 -14 0
13 -9 -14 0
-13 -9 14 0
13 9 14 0
16 13 0
16 15 0
-13 -15 -16 0
18 -16 0
18 17 0
16 -17 -18 0
19 -14 0
19 -18 0
14 18 -19 0
21 19 0
21 20 0
-19 -20 -21 0
-6 21 -22 0
6 -21 -22 0
-6 -21 22 0
6 21 22 0
-22 18 -23 0
22 -18 -23 0
-22 -18 23 0
22 18 23 0
-24 -12 0
-24 23 0
12 -23 24 0
-21 26 0
21 26 0
-27 25 0
-27 26 0
-25 -26 27 0
-29 28 0
-29 -28 0
-27 -29 -30 0
27 29 -30 0
-27 29 30 0
27 -29 30 0
-18 28 -31 0
18 -28 -31 0
-18 -28 31 0
18 28 31 0
-30 31 -32 0
30 -31 -32 0
-30 -31 32 0
30 31 32 0
-33 4 0
-33 -9 0
-4 9 33 0
34 -26 0
34 -33 0
26 33 -34 0
-35 1 -36 0
35 -1 -36 0
-35 -1 36 0
35 1 36 0
33 -36 -37 0
-33 36 -37 0
33 36 37 0
-33 -36 37 0
-34 37 -38 0
34 -37 -38 0
-34 -37 38 0
34 37 38 0
28 20 -39 0
-28 -20 -39 0
28 -20 39 0
-28 20 39 0
-40 8 0
-40 39 0
-8 -39 40 0
-41 -40 0
-41 -33 0
40 33 41 0
-42 -20 0
-42 18 0
20 -18 42 0
43 18 0
43 25 0
-18 -25 -43 0
44 -6 0
44 43 0
6 -43 -44 0
44 -26 -45 0
-44 26 -45 0
44 26 45 0
-44 -26 45 0
46 35 0
46 -1 0
-35 1 -46 0
47 17 0
47 46 0
-17 -46 -47 0
-48 45 0
-48 -47 0
-45 47 48 0
-49 20 0
-49 5 0
-20 -5 49 0
-49 -50 -51 0
49 50 -51 0
-49 50 51 0
49 -50 51 0
-48 51 -52 0
48 -51 -52 0
-48 -51 52 0
48 51 52 0
-54 -53 0
-54 -9 0
53 9 54 0
-55 -53 0
-55 -54 0
53 54 55 0
-56 55 0
-56 21 0
-55 -21 56 0
7 56 -57 0
-7 -56 -57 0
7 -56 57 0
-7 56 57 0
-58 52 0
-58 57 0
-52 -57 58 0
59 42 0
59 -58 0
-42 58 -59 0
41 -59 -60 0
-41 59 -60 0
41 59 60 0
-41 -59 60 0
-38 -60 -61 0
38 60 -61 0
-38 60 61 0
38 -60 61 0
-62 4 -63 0
62 -4 -63 0
-62 -4 63 0
62 4 63 0
64 2 0
64 8 0
-2 -8 -64 0
65 -63 0
65 64 0
63 -64 -65 0
-61 65 -66 0
61 -65 -66 0
-61 -65 66 0
61 65 66 0
67 -32 0
67 66 0
32 -66 -67 0
-68 -56 0
-68 -55 0
56 55 68 0
-69 40 0
-69 33 0
-40 -33 69 0
70 69 0
70 -18 0
-69 18 -70 0
71 68 0
71 -70 0
-68 70 -71 0
-72 -67 0
-72 -71 0
67 71 72 0
-24 -72 -73 0
24 72 -73 0
-24 72 73 0
24 -72 73 0
6 -23 49 -34 -38 0
28 10 35 0
-10 17 0
-37 64 -16 -39 17 0
-72 63 18 -25 -7 0
48 -43 -9 0
33 31 -9 -37 0
-68 52 54 0
19 62 23 0
-61 56 -2 0
8 -26 -68 0
22 3 16 32 0
-2 64 -56 0
43 -38 0
62 43 -61 0
-18 3 28 -34 0
-2 63 0
30 -19 32 40 -44 -48 0
41 -29 0
-54 -40 -43 -49 5 0
63 7 -3 -26 -68 35 0
-62 17 0
-8 -64 0
-52 23 -27 21 -59 -67 0
-65 -38 -51 16 0
-20 -29 0
-3 58 32 -55 0
-17 56 -49 37 20 0
73 0
